
(set-logic HORN)
(define-fun Z_1031 () Int 0)
(define-fun S_271 ((x Int)) Int (+ x 1))
(declare-fun diseqInt (Int Int) Bool)
(declare-fun unS_361 (Int Int) Bool)
(declare-fun isZ_253 (Int) Bool)
(declare-fun isS_253 (Int) Bool)
(assert (forall ((x_26837 Int))
	(unS_361 x_26837 (S_271 x_26837))))
(assert (isZ_253 Z_1031))
(assert (forall ((x_26839 Int))
	(isS_253 (S_271 x_26839))))
(assert (forall ((x_26840 Int))
	(diseqInt Z_1031 (S_271 x_26840))))
(assert (forall ((x_26841 Int))
	(diseqInt (S_271 x_26841) Z_1031)))
(assert (forall ((x_26842 Int) (x_26843 Int))
	(=> (diseqInt x_26842 x_26843) (diseqInt (S_271 x_26842) (S_271 x_26843)))))
(declare-fun add_191 (Int Int Int) Bool)
(declare-fun minus_185 (Int Int Int) Bool)
(declare-fun le_180 (Int Int) Bool)
(declare-fun ge_180 (Int Int) Bool)
(declare-fun lt_189 (Int Int) Bool)
(declare-fun gt_182 (Int Int) Bool)
(declare-fun mult_180 (Int Int Int) Bool)
(declare-fun div_180 (Int Int Int) Bool)
(declare-fun mod_180 (Int Int Int) Bool)
(assert (forall ((y_1079 Int))
	(add_191 y_1079 Z_1031 y_1079)))
(assert (forall ((x_26835 Int) (y_1079 Int) (r_215 Int))
	(=> (add_191 r_215 x_26835 y_1079) (add_191 (S_271 r_215) (S_271 x_26835) y_1079))))
(assert (forall ((y_1079 Int))
	(minus_185 Z_1031 Z_1031 y_1079)))
(assert (forall ((x_26835 Int) (y_1079 Int) (r_215 Int))
	(=> (minus_185 r_215 x_26835 y_1079) (minus_185 (S_271 r_215) (S_271 x_26835) y_1079))))
(assert (forall ((y_1079 Int))
	(le_180 Z_1031 y_1079)))
(assert (forall ((x_26835 Int) (y_1079 Int))
	(=> (le_180 x_26835 y_1079) (le_180 (S_271 x_26835) (S_271 y_1079)))))
(assert (forall ((y_1079 Int))
	(ge_180 y_1079 Z_1031)))
(assert (forall ((x_26835 Int) (y_1079 Int))
	(=> (ge_180 x_26835 y_1079) (ge_180 (S_271 x_26835) (S_271 y_1079)))))
(assert (forall ((y_1079 Int))
	(lt_189 Z_1031 (S_271 y_1079))))
(assert (forall ((x_26835 Int) (y_1079 Int))
	(=> (lt_189 x_26835 y_1079) (lt_189 (S_271 x_26835) (S_271 y_1079)))))
(assert (forall ((y_1079 Int))
	(gt_182 (S_271 y_1079) Z_1031)))
(assert (forall ((x_26835 Int) (y_1079 Int))
	(=> (gt_182 x_26835 y_1079) (gt_182 (S_271 x_26835) (S_271 y_1079)))))
(assert (forall ((y_1079 Int))
	(mult_180 Z_1031 Z_1031 y_1079)))
(assert (forall ((x_26835 Int) (y_1079 Int) (r_215 Int) (z_1032 Int))
	(=> (and (mult_180 r_215 x_26835 y_1079) (add_191 z_1032 r_215 y_1079)) (mult_180 z_1032 (S_271 x_26835) y_1079))))
(assert (forall ((x_26835 Int) (y_1079 Int))
	(=> (lt_189 x_26835 y_1079) (div_180 Z_1031 x_26835 y_1079))))
(assert (forall ((x_26835 Int) (y_1079 Int) (r_215 Int) (z_1032 Int))
	(=> (and (ge_180 x_26835 y_1079) (minus_185 z_1032 x_26835 y_1079) (div_180 r_215 z_1032 y_1079)) (div_180 (S_271 r_215) x_26835 y_1079))))
(assert (forall ((x_26835 Int) (y_1079 Int))
	(=> (lt_189 x_26835 y_1079) (mod_180 x_26835 x_26835 y_1079))))
(assert (forall ((x_26835 Int) (y_1079 Int) (r_215 Int) (z_1032 Int))
	(=> (and (ge_180 x_26835 y_1079) (minus_185 z_1032 x_26835 y_1079) (mod_180 r_215 z_1032 y_1079)) (mod_180 r_215 x_26835 y_1079))))
(declare-datatypes ((Bool_180 0)) (((false_180) (true_180))))
(declare-fun diseqBool_77 (Bool_180 Bool_180) Bool)
(declare-fun isfalse_77 (Bool_180) Bool)
(declare-fun istrue_77 (Bool_180) Bool)
(assert (isfalse_77 false_180))
(assert (istrue_77 true_180))
(assert (diseqBool_77 false_180 true_180))
(assert (diseqBool_77 true_180 false_180))
(declare-fun and_180 (Bool_180 Bool_180 Bool_180) Bool)
(declare-fun or_183 (Bool_180 Bool_180 Bool_180) Bool)
(declare-fun hence_180 (Bool_180 Bool_180 Bool_180) Bool)
(declare-fun not_182 (Bool_180 Bool_180) Bool)
(assert (and_180 false_180 false_180 false_180))
(assert (and_180 false_180 true_180 false_180))
(assert (and_180 false_180 false_180 true_180))
(assert (and_180 true_180 true_180 true_180))
(assert (or_183 false_180 false_180 false_180))
(assert (or_183 true_180 true_180 false_180))
(assert (or_183 true_180 false_180 true_180))
(assert (or_183 true_180 true_180 true_180))
(assert (hence_180 true_180 false_180 false_180))
(assert (hence_180 false_180 true_180 false_180))
(assert (hence_180 true_180 false_180 true_180))
(assert (hence_180 true_180 true_180 true_180))
(assert (not_182 true_180 false_180))
(assert (not_182 false_180 true_180))
(declare-datatypes ((pair_48 0)) (((pair_49 (projpair_96 Int) (projpair_97 Bool_180)))))
(declare-fun diseqpair_24 (pair_48 pair_48) Bool)
(declare-fun projpair_98 (Int pair_48) Bool)
(declare-fun projpair_99 (Bool_180 pair_48) Bool)
(declare-fun ispair_24 (pair_48) Bool)
(assert (forall ((x_26846 Int) (x_26847 Bool_180))
	(projpair_98 x_26846 (pair_49 x_26846 x_26847))))
(assert (forall ((x_26846 Int) (x_26847 Bool_180))
	(projpair_99 x_26847 (pair_49 x_26846 x_26847))))
(assert (forall ((x_26849 Int) (x_26850 Bool_180))
	(ispair_24 (pair_49 x_26849 x_26850))))
(assert (forall ((x_26851 Int) (x_26852 Bool_180) (x_26853 Int) (x_26854 Bool_180))
	(=> (diseqInt x_26851 x_26853) (diseqpair_24 (pair_49 x_26851 x_26852) (pair_49 x_26853 x_26854)))))
(assert (forall ((x_26851 Int) (x_26852 Bool_180) (x_26853 Int) (x_26854 Bool_180))
	(=> (diseqBool_77 x_26852 x_26854) (diseqpair_24 (pair_49 x_26851 x_26852) (pair_49 x_26853 x_26854)))))
(declare-datatypes ((list_127 0)) (((nil_141) (cons_127 (head_254 Bool_180) (tail_254 list_127)))))
(declare-fun diseqlist_127 (list_127 list_127) Bool)
(declare-fun head_257 (Bool_180 list_127) Bool)
(declare-fun tail_257 (list_127 list_127) Bool)
(declare-fun isnil_141 (list_127) Bool)
(declare-fun iscons_127 (list_127) Bool)
(assert (forall ((x_26856 Bool_180) (x_26857 list_127))
	(head_257 x_26856 (cons_127 x_26856 x_26857))))
(assert (forall ((x_26856 Bool_180) (x_26857 list_127))
	(tail_257 x_26857 (cons_127 x_26856 x_26857))))
(assert (isnil_141 nil_141))
(assert (forall ((x_26859 Bool_180) (x_26860 list_127))
	(iscons_127 (cons_127 x_26859 x_26860))))
(assert (forall ((x_26861 Bool_180) (x_26862 list_127))
	(diseqlist_127 nil_141 (cons_127 x_26861 x_26862))))
(assert (forall ((x_26863 Bool_180) (x_26864 list_127))
	(diseqlist_127 (cons_127 x_26863 x_26864) nil_141)))
(assert (forall ((x_26865 Bool_180) (x_26866 list_127) (x_26867 Bool_180) (x_26868 list_127))
	(=> (diseqBool_77 x_26865 x_26867) (diseqlist_127 (cons_127 x_26865 x_26866) (cons_127 x_26867 x_26868)))))
(assert (forall ((x_26865 Bool_180) (x_26866 list_127) (x_26867 Bool_180) (x_26868 list_127))
	(=> (diseqlist_127 x_26866 x_26868) (diseqlist_127 (cons_127 x_26865 x_26866) (cons_127 x_26867 x_26868)))))
(declare-datatypes ((list_128 0)) (((nil_142) (cons_128 (head_255 pair_48) (tail_255 list_128)))))
(declare-fun diseqlist_128 (list_128 list_128) Bool)
(declare-fun head_258 (pair_48 list_128) Bool)
(declare-fun tail_258 (list_128 list_128) Bool)
(declare-fun isnil_142 (list_128) Bool)
(declare-fun iscons_128 (list_128) Bool)
(assert (forall ((x_26870 pair_48) (x_26871 list_128))
	(head_258 x_26870 (cons_128 x_26870 x_26871))))
(assert (forall ((x_26870 pair_48) (x_26871 list_128))
	(tail_258 x_26871 (cons_128 x_26870 x_26871))))
(assert (isnil_142 nil_142))
(assert (forall ((x_26873 pair_48) (x_26874 list_128))
	(iscons_128 (cons_128 x_26873 x_26874))))
(assert (forall ((x_26875 pair_48) (x_26876 list_128))
	(diseqlist_128 nil_142 (cons_128 x_26875 x_26876))))
(assert (forall ((x_26877 pair_48) (x_26878 list_128))
	(diseqlist_128 (cons_128 x_26877 x_26878) nil_142)))
(assert (forall ((x_26879 pair_48) (x_26880 list_128) (x_26881 pair_48) (x_26882 list_128))
	(=> (diseqpair_24 x_26879 x_26881) (diseqlist_128 (cons_128 x_26879 x_26880) (cons_128 x_26881 x_26882)))))
(assert (forall ((x_26879 pair_48) (x_26880 list_128) (x_26881 pair_48) (x_26882 list_128))
	(=> (diseqlist_128 x_26880 x_26882) (diseqlist_128 (cons_128 x_26879 x_26880) (cons_128 x_26881 x_26882)))))
(declare-datatypes ((list_129 0)) (((nil_143) (cons_129 (head_256 list_128) (tail_256 list_129)))))
(declare-fun diseqlist_129 (list_129 list_129) Bool)
(declare-fun head_259 (list_128 list_129) Bool)
(declare-fun tail_259 (list_129 list_129) Bool)
(declare-fun isnil_143 (list_129) Bool)
(declare-fun iscons_129 (list_129) Bool)
(assert (forall ((x_26884 list_128) (x_26885 list_129))
	(head_259 x_26884 (cons_129 x_26884 x_26885))))
(assert (forall ((x_26884 list_128) (x_26885 list_129))
	(tail_259 x_26885 (cons_129 x_26884 x_26885))))
(assert (isnil_143 nil_143))
(assert (forall ((x_26887 list_128) (x_26888 list_129))
	(iscons_129 (cons_129 x_26887 x_26888))))
(assert (forall ((x_26889 list_128) (x_26890 list_129))
	(diseqlist_129 nil_143 (cons_129 x_26889 x_26890))))
(assert (forall ((x_26891 list_128) (x_26892 list_129))
	(diseqlist_129 (cons_129 x_26891 x_26892) nil_143)))
(assert (forall ((x_26893 list_128) (x_26894 list_129) (x_26895 list_128) (x_26896 list_129))
	(=> (diseqlist_128 x_26893 x_26895) (diseqlist_129 (cons_129 x_26893 x_26894) (cons_129 x_26895 x_26896)))))
(assert (forall ((x_26893 list_128) (x_26894 list_129) (x_26895 list_128) (x_26896 list_129))
	(=> (diseqlist_129 x_26894 x_26896) (diseqlist_129 (cons_129 x_26893 x_26894) (cons_129 x_26895 x_26896)))))
(declare-datatypes ((Form_1 0)) (((x_26753 (proj_4 Form_1) (proj_5 Form_1)) (Not_181 (projNot_2 Form_1)) (Var_1 (projVar_2 Int)))))
(declare-fun diseqForm_1 (Form_1 Form_1) Bool)
(declare-fun proj_6 (Form_1 Form_1) Bool)
(declare-fun proj_7 (Form_1 Form_1) Bool)
(declare-fun projNot_3 (Form_1 Form_1) Bool)
(declare-fun projVar_3 (Int Form_1) Bool)
(declare-fun isx_8 (Form_1) Bool)
(declare-fun isNot_1 (Form_1) Bool)
(declare-fun isVar_1 (Form_1) Bool)
(assert (forall ((x_26897 Form_1) (x_26898 Form_1))
	(proj_6 x_26897 (x_26753 x_26897 x_26898))))
(assert (forall ((x_26897 Form_1) (x_26898 Form_1))
	(proj_7 x_26898 (x_26753 x_26897 x_26898))))
(assert (forall ((x_26900 Form_1))
	(projNot_3 x_26900 (Not_181 x_26900))))
(assert (forall ((x_26902 Int))
	(projVar_3 x_26902 (Var_1 x_26902))))
(assert (forall ((x_26904 Form_1) (x_26905 Form_1))
	(isx_8 (x_26753 x_26904 x_26905))))
(assert (forall ((x_26906 Form_1))
	(isNot_1 (Not_181 x_26906))))
(assert (forall ((x_26907 Int))
	(isVar_1 (Var_1 x_26907))))
(assert (forall ((x_26908 Form_1) (x_26909 Form_1) (x_26910 Form_1))
	(diseqForm_1 (x_26753 x_26908 x_26909) (Not_181 x_26910))))
(assert (forall ((x_26911 Form_1) (x_26912 Form_1) (x_26913 Int))
	(diseqForm_1 (x_26753 x_26911 x_26912) (Var_1 x_26913))))
(assert (forall ((x_26914 Form_1) (x_26915 Form_1) (x_26916 Form_1))
	(diseqForm_1 (Not_181 x_26914) (x_26753 x_26915 x_26916))))
(assert (forall ((x_26917 Int) (x_26918 Form_1) (x_26919 Form_1))
	(diseqForm_1 (Var_1 x_26917) (x_26753 x_26918 x_26919))))
(assert (forall ((x_26920 Form_1) (x_26921 Int))
	(diseqForm_1 (Not_181 x_26920) (Var_1 x_26921))))
(assert (forall ((x_26922 Int) (x_26923 Form_1))
	(diseqForm_1 (Var_1 x_26922) (Not_181 x_26923))))
(assert (forall ((x_26924 Form_1) (x_26925 Form_1) (x_26926 Form_1) (x_26927 Form_1))
	(=> (diseqForm_1 x_26924 x_26926) (diseqForm_1 (x_26753 x_26924 x_26925) (x_26753 x_26926 x_26927)))))
(assert (forall ((x_26924 Form_1) (x_26925 Form_1) (x_26926 Form_1) (x_26927 Form_1))
	(=> (diseqForm_1 x_26925 x_26927) (diseqForm_1 (x_26753 x_26924 x_26925) (x_26753 x_26926 x_26927)))))
(assert (forall ((x_26928 Form_1) (x_26929 Form_1))
	(=> (diseqForm_1 x_26928 x_26929) (diseqForm_1 (Not_181 x_26928) (Not_181 x_26929)))))
(assert (forall ((x_26930 Int) (x_26931 Int))
	(=> (diseqInt x_26930 x_26931) (diseqForm_1 (Var_1 x_26930) (Var_1 x_26931)))))
(declare-fun or_182 (Bool_180 list_127) Bool)
(assert (forall ((x_26772 Bool_180) (x_26773 Bool_180) (y_1067 Bool_180) (xs_342 list_127))
	(=> (and (or_182 x_26773 xs_342) (or_183 x_26772 y_1067 x_26773)) (or_182 x_26772 (cons_127 y_1067 xs_342)))))
(assert (or_182 false_180 nil_141))
(declare-fun models_6 (list_128 Int list_128) Bool)
(assert (forall ((x_26776 list_128) (x_26756 Int) (y_1069 Bool_180) (xs_343 list_128) (x_26755 Int))
	(=> (and (diseqInt x_26755 x_26756) (models_6 x_26776 x_26755 xs_343)) (models_6 (cons_128 (pair_49 x_26756 y_1069) x_26776) x_26755 (cons_128 (pair_49 x_26756 y_1069) xs_343)))))
(assert (forall ((x_26777 list_128) (y_1069 Bool_180) (xs_343 list_128) (x_26755 Int))
	(=> (models_6 x_26777 x_26755 xs_343) (models_6 x_26777 x_26755 (cons_128 (pair_49 x_26755 y_1069) xs_343)))))
(assert (forall ((x_26755 Int))
	(models_6 nil_142 x_26755 nil_142)))
(declare-fun models_7 (list_127 Int list_128) Bool)
(assert (forall ((x_26780 list_127) (y_1071 Int) (x_26758 list_128) (x_26757 Int))
	(=> (models_7 x_26780 x_26757 x_26758) (models_7 x_26780 x_26757 (cons_128 (pair_49 y_1071 true_180) x_26758)))))
(assert (forall ((x_26783 list_127) (x_26758 list_128) (x_26757 Int))
	(=> (models_7 x_26783 x_26757 x_26758) (models_7 (cons_127 true_180 x_26783) x_26757 (cons_128 (pair_49 x_26757 false_180) x_26758)))))
(assert (forall ((x_26785 list_127) (y_1071 Int) (x_26758 list_128) (x_26757 Int))
	(=> (and (diseqInt x_26757 y_1071) (models_7 x_26785 x_26757 x_26758)) (models_7 (cons_127 false_180 x_26785) x_26757 (cons_128 (pair_49 y_1071 false_180) x_26758)))))
(assert (forall ((x_26757 Int))
	(models_7 nil_141 x_26757 nil_142)))
(declare-fun models_8 (list_127 Int list_128) Bool)
(assert (forall ((x_26788 list_127) (x_26761 list_128) (x_26760 Int))
	(=> (models_8 x_26788 x_26760 x_26761) (models_8 (cons_127 true_180 x_26788) x_26760 (cons_128 (pair_49 x_26760 true_180) x_26761)))))
(assert (forall ((x_26790 list_127) (y_1073 Int) (x_26761 list_128) (x_26760 Int))
	(=> (and (diseqInt x_26760 y_1073) (models_8 x_26790 x_26760 x_26761)) (models_8 (cons_127 false_180 x_26790) x_26760 (cons_128 (pair_49 y_1073 true_180) x_26761)))))
(assert (forall ((x_26791 list_127) (y_1073 Int) (x_26761 list_128) (x_26760 Int))
	(=> (models_8 x_26791 x_26760 x_26761) (models_8 x_26791 x_26760 (cons_128 (pair_49 y_1073 false_180) x_26761)))))
(assert (forall ((x_26760 Int))
	(models_8 nil_141 x_26760 nil_142)))
(declare-fun x_26763 (list_129 list_129 list_129) Bool)
(assert (forall ((x_26795 list_129) (z_1026 list_128) (xs_344 list_129) (y_1074 list_129))
	(=> (x_26763 x_26795 xs_344 y_1074) (x_26763 (cons_129 z_1026 x_26795) (cons_129 z_1026 xs_344) y_1074))))
(assert (forall ((x_26796 list_129))
	(x_26763 x_26796 nil_143 x_26796)))
(declare-fun models_9 (list_129 Form_1 list_128) Bool)
(declare-fun models_10 (list_129 Form_1 list_129) Bool)
(declare-fun models_11 (list_129 list_129 Form_1 list_129) Bool)
(assert (forall ((x_26800 list_128) (x_26797 list_127) (x_26766 Int) (y_1075 list_128))
	(=> (and (models_6 x_26800 x_26766 y_1075) (models_7 x_26797 x_26766 y_1075) (or_182 false_180 x_26797)) (models_9 (cons_129 (cons_128 (pair_49 x_26766 true_180) x_26800) nil_143) (Var_1 x_26766) y_1075))))
(assert (forall ((x_26801 list_127) (x_26766 Int) (y_1075 list_128))
	(=> (and (models_7 x_26801 x_26766 y_1075) (or_182 true_180 x_26801)) (models_9 nil_143 (Var_1 x_26766) y_1075))))
(assert (forall ((x_26807 list_128) (x_26804 list_127) (x_26767 Int) (y_1075 list_128))
	(=> (and (models_6 x_26807 x_26767 y_1075) (models_8 x_26804 x_26767 y_1075) (or_182 false_180 x_26804)) (models_9 (cons_129 (cons_128 (pair_49 x_26767 false_180) x_26807) nil_143) (Not_181 (Var_1 x_26767)) y_1075))))
(assert (forall ((x_26808 list_127) (x_26767 Int) (y_1075 list_128))
	(=> (and (models_8 x_26808 x_26767 y_1075) (or_182 true_180 x_26808)) (models_9 nil_143 (Not_181 (Var_1 x_26767)) y_1075))))
(assert (forall ((x_26811 list_129) (p_166 Form_1) (y_1075 list_128))
	(=> (models_9 x_26811 p_166 y_1075) (models_9 x_26811 (Not_181 (Not_181 p_166)) y_1075))))
(assert (forall ((x_26813 list_129) (x_26814 list_129) (x_26815 list_129) (r_214 Form_1) (q_55 Form_1) (y_1075 list_128))
	(=> (and (models_9 x_26814 (Not_181 r_214) y_1075) (models_9 x_26815 (x_26753 r_214 (Not_181 q_55)) y_1075) (x_26763 x_26813 x_26814 x_26815)) (models_9 x_26813 (Not_181 (x_26753 r_214 q_55)) y_1075))))
(assert (forall ((x_26817 list_129) (x_26818 list_129) (p_167 Form_1) (q_56 Form_1) (y_1075 list_128))
	(=> (and (models_9 x_26818 p_167 y_1075) (models_10 x_26817 q_56 x_26818)) (models_9 x_26817 (x_26753 p_167 q_56) y_1075))))
(assert (forall ((x_26820 list_129) (x_26821 list_129) (y_1076 list_128) (z_1028 list_129) (q_57 Form_1))
	(=> (and (models_9 x_26821 q_57 y_1076) (models_11 x_26820 z_1028 q_57 x_26821)) (models_10 x_26820 q_57 (cons_129 y_1076 z_1028)))))
(assert (forall ((q_57 Form_1))
	(models_10 nil_143 q_57 nil_143)))
(assert (forall ((x_26825 list_129) (z_1029 list_128) (x_26770 list_129) (x_26769 list_129) (q_58 Form_1))
	(=> (models_11 x_26825 x_26769 q_58 x_26770) (models_11 (cons_129 z_1029 x_26825) x_26769 q_58 (cons_129 z_1029 x_26770)))))
(assert (forall ((x_26826 list_129) (x_26769 list_129) (q_58 Form_1))
	(=> (models_10 x_26826 q_58 x_26769) (models_11 x_26826 x_26769 q_58 nil_143))))
(declare-fun valid_1 (Bool_180 Form_1) Bool)
(assert (forall ((y_1078 list_128) (z_1030 list_129) (x_26771 Form_1))
	(=> (models_9 (cons_129 y_1078 z_1030) (Not_181 x_26771) nil_142) (valid_1 false_180 x_26771))))
(assert (forall ((x_26771 Form_1))
	(=> (models_9 nil_143 (Not_181 x_26771) nil_142) (valid_1 true_180 x_26771))))
(assert (forall ((x_26832 Bool_180) (x_26833 Bool_180) (p_168 Form_1))
	(=> (and true (diseqBool_77 x_26832 x_26833) (valid_1 x_26832 (x_26753 p_168 p_168)) (valid_1 x_26833 p_168)) false)))
(check-sat)
